benchmark/results/graph__10-1000-0.10-02_6/graph__10-1000-0.10-02_6_Quinton_Benders_aux.lp
\ This file has been generated by DOcplex
\ ENCODING=ISO-8859-1
\Problem name: Quinton Benders_auxiliary_sub

Minimize
 obj: 0.000817661488 pi_nr_a0 + 0.001568369009 pi_nr_a1
      + 0.001228501229 pi_nr_a2 + 0.001293661061 pi_nr_a3
      + 0.001592356688 pi_nr_a4 + 0.000948766603 pi_nr_a5
      + 0.001980198020 pi_nr_a6 + 0.000793021412 pi_nr_a7
      + 0.001012145749 pi_nr_a8 + 0.000838926174 pi_nr_a9 + pi_p_a2_a1
      + pi_p_a7_a8 + pi_p_a6_a6 + pi_p_a2_a5 + pi_p_a3_a4
      + 2509.144039034799 pi_d_a0_a1_proc_0 + 0.002201199576 pi_d_a1_a0_proc_0
      + 0.000000000000 pi_d_a0_a3_proc_0 + pi_d_a3_a0_proc_0
      + 0.132690640108 pi_d_a0_a5_proc_0 + 0.867309359892 pi_d_a5_a0_proc_0
      + 2576.756032085750 pi_d_a0_a6_proc_0 - 53.756032085750 pi_d_a6_a0_proc_0
      + 83.055664789922 pi_d_a0_a7_proc_0 + 2439.944335210078 pi_d_a7_a0_proc_0
      + 83.059407983151 pi_d_a0_a8_proc_0 - 82.059407983151 pi_d_a8_a0_proc_0
      + 13.853759765625 pi_d_a1_a2_proc_1 + 1.000000000000 pi_d_a2_a1_proc_1
      + 2521.999999992431 pi_d_a1_a3_proc_1
      + 2508.146240226806 pi_d_a1_a3_proc_0 + 14.853759773194 pi_d_a3_a1_proc_1
      + 1.000000007569 pi_d_a3_a1_proc_0 + 14.853759765625 pi_d_a1_a4_proc_1
      + 0.000000000000 pi_d_a4_a1_proc_1 + 1247.151733398670 pi_d_a1_a5_proc_0
      + 1261.994506835705 pi_d_a5_a1_proc_0 + 54.772586158511 pi_d_a1_a6_proc_1
      + 2562.918826392885 pi_d_a1_a6_proc_0 - 39.918826392886 pi_d_a6_a1_proc_1
      + 2468.227413841490 pi_d_a6_a1_proc_0 + 83.389127525590 pi_d_a1_a7_proc_1
      + 2591.535367759965 pi_d_a1_a7_proc_0 - 68.535367759965 pi_d_a7_a1_proc_1
      + 2439.610872474410 pi_d_a7_a1_proc_0 + 97.829907776171 pi_d_a1_a8_proc_1
      + 83.976148010546 pi_d_a1_a8_proc_0 + 2439.023851989454 pi_d_a8_a1_proc_1
      + 2425.170092223829 pi_d_a8_a1_proc_0 + 83.053802740815 pi_d_a1_a9_proc_1
      - 68.200042975190 pi_d_a9_a1_proc_1 + 2522.999328613281 pi_d_a2_a3_proc_1
      + 0.000671386719 pi_d_a3_a2_proc_1 + 1.995419978324 pi_d_a2_a4_proc_1
      - 0.995419978324 pi_d_a4_a2_proc_1 + 55.766107357112 pi_d_a2_a6_proc_1
      - 54.766107357112 pi_d_a6_a2_proc_1 + 83.053907188646 pi_d_a2_a7_proc_1
      - 82.053907188646 pi_d_a7_a2_proc_1 + 84.153531823008 pi_d_a2_a8_proc_1
      + 2438.846468176992 pi_d_a8_a2_proc_1 + 83.538175833459 pi_d_a2_a9_proc_1
      - 82.538175833459 pi_d_a9_a2_proc_1 + 2522.999999999427 pi_d_a3_a4_proc_1
      + 0.000000000573 pi_d_a4_a3_proc_1 + 0.742145271930 pi_d_a3_a5_proc_0
      + 0.257854728070 pi_d_a5_a3_proc_0 + 2577.611534922416 pi_d_a3_a6_proc_1
      + 2577.611534922416 pi_d_a3_a6_proc_0 - 54.611534922416 pi_d_a6_a3_proc_1
      - 54.611534922416 pi_d_a6_a3_proc_0 + 2605.045991671319 pi_d_a3_a7_proc_1
      + 2605.045991671319 pi_d_a3_a7_proc_0 - 82.045991671319 pi_d_a7_a3_proc_1
      - 82.045991671319 pi_d_a7_a3_proc_0 + 2605.530355458196 pi_d_a3_a8_proc_1
      + 83.530355458196 pi_d_a3_a8_proc_0 + 2439.469644541804 pi_d_a8_a3_proc_1
      - 82.530355458196 pi_d_a8_a3_proc_0 + 2604.773558439936 pi_d_a3_a9_proc_1
      - 81.773558439936 pi_d_a9_a3_proc_1 + 54.750330240469 pi_d_a4_a6_proc_1
      - 53.750330240469 pi_d_a6_a4_proc_1 + 82.053903359047 pi_d_a4_a7_proc_1
      - 81.053903359047 pi_d_a7_a4_proc_1 + 2127.848970827965 pi_d_a4_a8_proc_1
      + 395.151029172035 pi_d_a8_a4_proc_1 + 82.538177740808 pi_d_a4_a9_proc_1
      - 81.538177740808 pi_d_a9_a4_proc_1 + 2577.020715330739 pi_d_a5_a6_proc_0
      - 54.020715330739 pi_d_a6_a5_proc_0 + 2604.921155037590 pi_d_a5_a7_proc_0
      - 81.921155037590 pi_d_a7_a5_proc_0 + 83.405485193335 pi_d_a5_a8_proc_0
      - 82.405485193335 pi_d_a8_a5_proc_0 + 28.032230798207 pi_d_a6_a7_proc_1
      + 2550.032230798207 pi_d_a6_a7_proc_0 - 27.032230798207 pi_d_a7_a6_proc_1
      + 2494.967769201793 pi_d_a7_a6_proc_0
      + 2524.789557156383 pi_d_a6_a8_proc_1
      + 2524.789557156383 pi_d_a6_a8_proc_0 - 1.789557156383 pi_d_a8_a6_proc_1
      - 1.789557156383 pi_d_a8_a6_proc_0 + 28.289923291825 pi_d_a6_a9_proc_1
      - 27.289923291825 pi_d_a9_a6_proc_1 + 2523 pi_d_a7_a8_proc_1
      + 2523 pi_d_a7_a8_proc_0 + pi_d_a7_a9_proc_1
      - 0.000000000000 pi_d_a9_a7_proc_1 + 2522 pi_d_a8_a9_proc_1
      + pi_d_a9_a8_proc_1 + pi_y2_a0_proc_0 + 0.005493164063 pi_y2_a1_proc_0
      + 0.994506835938 pi_y2_a1_proc_1 + pi_y2_a2_proc_1 + pi_y2_a3_proc_0
      + 0.000000000000 pi_y2_a3_proc_1 + pi_y2_a4_proc_1 + pi_y2_a5_proc_0
      + 0.000000000000 pi_y2_a6_proc_0 + pi_y2_a6_proc_1
      + 0.000000000000 pi_y2_a7_proc_0 + pi_y2_a7_proc_1 + pi_y2_a8_proc_0
      + 0.000000000000 pi_y2_a8_proc_1 + pi_y2_a9_proc_1
Subject To
 c1: 0.000817661488 pi_nr_a0 + 0.001572327044 pi_nr_a1 + 0.001228501229 pi_nr_a2
     + 0.001293661061 pi_nr_a3 + 0.001592356688 pi_nr_a4
     + 0.000948766603 pi_nr_a5 + 0.001980198020 pi_nr_a6
     + 0.000793021412 pi_nr_a7 + 0.001012145749 pi_nr_a8
     + 0.000838926174 pi_nr_a9 + pi_p_a2_a1 + pi_p_a7_a8 + pi_p_a6_a6
     + pi_p_a2_a5 + pi_p_a3_a4 + 2523 pi_d_a0_a1_proc_0 + pi_d_a3_a0_proc_0
     + pi_d_a5_a0_proc_0 + 2630 pi_d_a0_a6_proc_0 - 107 pi_d_a6_a0_proc_0
     + 163 pi_d_a0_a7_proc_0 + 2360 pi_d_a7_a0_proc_0 + 163 pi_d_a0_a8_proc_0
     - 162 pi_d_a8_a0_proc_0 + pi_d_a2_a1_proc_1 + 2522 pi_d_a1_a3_proc_1
     + 2522 pi_d_a1_a3_proc_0 + pi_d_a3_a1_proc_1 + pi_d_a3_a1_proc_0
     + pi_d_a1_a4_proc_1 + 2523 pi_d_a5_a1_proc_0 + 108 pi_d_a1_a6_proc_1
     + 2630 pi_d_a1_a6_proc_0 - 107 pi_d_a6_a1_proc_1 + 2415 pi_d_a6_a1_proc_0
     + 162 pi_d_a1_a7_proc_1 + 2684 pi_d_a1_a7_proc_0 - 161 pi_d_a7_a1_proc_1
     + 2361 pi_d_a7_a1_proc_0 + 163 pi_d_a1_a8_proc_1 + 163 pi_d_a1_a8_proc_0
     + 2360 pi_d_a8_a1_proc_1 + 2360 pi_d_a8_a1_proc_0 + 163 pi_d_a1_a9_proc_1
     - 162 pi_d_a9_a1_proc_1 + 2523 pi_d_a2_a3_proc_1 + 2 pi_d_a2_a4_proc_1
     - pi_d_a4_a2_proc_1 + 109 pi_d_a2_a6_proc_1 - 108 pi_d_a6_a2_proc_1
     + 163 pi_d_a2_a7_proc_1 - 162 pi_d_a7_a2_proc_1 + 164 pi_d_a2_a8_proc_1
     + 2359 pi_d_a8_a2_proc_1 + 163 pi_d_a2_a9_proc_1 - 162 pi_d_a9_a2_proc_1
     + 2523 pi_d_a3_a4_proc_1 + pi_d_a3_a5_proc_0 + 2631 pi_d_a3_a6_proc_1
     + 2631 pi_d_a3_a6_proc_0 - 108 pi_d_a6_a3_proc_1 - 108 pi_d_a6_a3_proc_0
     + 2685 pi_d_a3_a7_proc_1 + 2685 pi_d_a3_a7_proc_0 - 162 pi_d_a7_a3_proc_1
     - 162 pi_d_a7_a3_proc_0 + 2685 pi_d_a3_a8_proc_1 + 163 pi_d_a3_a8_proc_0
     + 2360 pi_d_a8_a3_proc_1 - 162 pi_d_a8_a3_proc_0 + 2685 pi_d_a3_a9_proc_1
     - 162 pi_d_a9_a3_proc_1 + 108 pi_d_a4_a6_proc_1 - 107 pi_d_a6_a4_proc_1
     + 162 pi_d_a4_a7_proc_1 - 161 pi_d_a7_a4_proc_1 + 2331 pi_d_a4_a8_proc_1
     + 192 pi_d_a8_a4_proc_1 + 162 pi_d_a4_a9_proc_1 - 161 pi_d_a9_a4_proc_1
     + 2630 pi_d_a5_a6_proc_0 - 107 pi_d_a6_a5_proc_0 + 2685 pi_d_a5_a7_proc_0
     - 162 pi_d_a7_a5_proc_0 + 163 pi_d_a5_a8_proc_0 - 162 pi_d_a8_a5_proc_0
     + 55 pi_d_a6_a7_proc_1 + 2577 pi_d_a6_a7_proc_0 - 54 pi_d_a7_a6_proc_1
     + 2468 pi_d_a7_a6_proc_0 + 2526 pi_d_a6_a8_proc_1 + 2526 pi_d_a6_a8_proc_0
     - 3 pi_d_a8_a6_proc_1 - 3 pi_d_a8_a6_proc_0 + 55 pi_d_a6_a9_proc_1
     - 54 pi_d_a9_a6_proc_1 + 2523 pi_d_a7_a8_proc_1 + 2523 pi_d_a7_a8_proc_0
     + pi_d_a7_a9_proc_1 + 2522 pi_d_a8_a9_proc_1 + pi_d_a9_a8_proc_1
     + pi_y2_a0_proc_0 + pi_y2_a1_proc_1 + pi_y2_a2_proc_1 + pi_y2_a3_proc_0
     + pi_y2_a4_proc_1 + pi_y2_a5_proc_0 + pi_y2_a6_proc_1 + pi_y2_a7_proc_1
     + pi_y2_a8_proc_0 + pi_y2_a9_proc_1 = 0.000158227848
 c2: pi_nr_a0 + pi_nr_a1 + pi_nr_a2 + pi_nr_a3 + pi_nr_a4 + pi_nr_a5 + pi_nr_a6
     + pi_nr_a7 + pi_nr_a8 + pi_nr_a9 - pi_y1_a0 - pi_y1_a1 - pi_y1_a2
     - pi_y1_a3 - pi_y1_a4 - pi_y1_a5 - pi_y1_a6 - pi_y1_a7 - pi_y1_a8
     - pi_y1_a9 >= 1
 c3: - pi_p_a1_a0 + pi_p_a0_a3 + pi_d_a0_a1_proc_0 - pi_d_a1_a0_proc_0
     + pi_d_a0_a3_proc_0 - pi_d_a3_a0_proc_0 + pi_d_a0_a5_proc_0
     - pi_d_a5_a0_proc_0 + pi_d_a0_a6_proc_0 - pi_d_a6_a0_proc_0
     + pi_d_a0_a7_proc_0 - pi_d_a7_a0_proc_0 + pi_d_a0_a8_proc_0
     - pi_d_a8_a0_proc_0 >= 0
 c4: 1223 pi_p_a0_a3 + 1223 pi_d_a0_a1_proc_0 + 1223 pi_d_a0_a3_proc_0
     + 1223 pi_d_a0_a5_proc_0 + 1223 pi_d_a0_a6_proc_0 + 1223 pi_d_a0_a7_proc_0
     + 1223 pi_d_a0_a8_proc_0 + pi_y1_a0 + pi_y2_a0_proc_0 >= 0
 c5: pi_p_a1_a0 - pi_p_a2_a1 - pi_p_a4_a1 - pi_d_a0_a1_proc_0
     + pi_d_a1_a0_proc_0 + pi_d_a1_a2_proc_1 - pi_d_a2_a1_proc_1
     + pi_d_a1_a3_proc_1 + pi_d_a1_a3_proc_0 - pi_d_a3_a1_proc_1
     - pi_d_a3_a1_proc_0 + pi_d_a1_a4_proc_1 - pi_d_a4_a1_proc_1
     + pi_d_a1_a5_proc_0 - pi_d_a5_a1_proc_0 + pi_d_a1_a6_proc_1
     + pi_d_a1_a6_proc_0 - pi_d_a6_a1_proc_1 - pi_d_a6_a1_proc_0
     + pi_d_a1_a7_proc_1 + pi_d_a1_a7_proc_0 - pi_d_a7_a1_proc_1
     - pi_d_a7_a1_proc_0 + pi_d_a1_a8_proc_1 + pi_d_a1_a8_proc_0
     - pi_d_a8_a1_proc_1 - pi_d_a8_a1_proc_0 + pi_d_a1_a9_proc_1
     - pi_d_a9_a1_proc_1 >= 0
 c6: 1174 pi_p_a1_a0 + 1174 pi_d_a1_a0_proc_0 + 1174 pi_d_a1_a3_proc_0
     + 1174 pi_d_a1_a5_proc_0 + 1174 pi_d_a1_a6_proc_0 + 1174 pi_d_a1_a7_proc_0
     + 1174 pi_d_a1_a8_proc_0 + pi_y1_a1 + pi_y2_a1_proc_0 >= 0
 c7: 636 pi_p_a1_a0 + 636 pi_d_a1_a2_proc_1 + 636 pi_d_a1_a3_proc_1
     + 636 pi_d_a1_a4_proc_1 + 636 pi_d_a1_a6_proc_1 + 636 pi_d_a1_a7_proc_1
     + 636 pi_d_a1_a8_proc_1 + 636 pi_d_a1_a9_proc_1 + pi_y1_a1
     + pi_y2_a1_proc_1 >= 0
 c8: pi_p_a2_a1 - pi_p_a5_a2 - pi_p_a3_a2 + pi_p_a2_a5 - pi_d_a1_a2_proc_1
     + pi_d_a2_a1_proc_1 + pi_d_a2_a3_proc_1 - pi_d_a3_a2_proc_1
     + pi_d_a2_a4_proc_1 - pi_d_a4_a2_proc_1 + pi_d_a2_a6_proc_1
     - pi_d_a6_a2_proc_1 + pi_d_a2_a7_proc_1 - pi_d_a7_a2_proc_1
     + pi_d_a2_a8_proc_1 - pi_d_a8_a2_proc_1 + pi_d_a2_a9_proc_1
     - pi_d_a9_a2_proc_1 >= 0
 c9: 814 pi_p_a2_a1 + 814 pi_p_a2_a5 + 814 pi_d_a2_a1_proc_1
     + 814 pi_d_a2_a3_proc_1 + 814 pi_d_a2_a4_proc_1 + 814 pi_d_a2_a6_proc_1
     + 814 pi_d_a2_a7_proc_1 + 814 pi_d_a2_a8_proc_1 + 814 pi_d_a2_a9_proc_1
     + pi_y1_a2 + pi_y2_a2_proc_1 >= 0
 c10: - pi_p_a0_a3 + pi_p_a3_a2 + pi_p_a3_a4 - pi_d_a0_a3_proc_0
      + pi_d_a3_a0_proc_0 - pi_d_a1_a3_proc_1 - pi_d_a1_a3_proc_0
      + pi_d_a3_a1_proc_1 + pi_d_a3_a1_proc_0 - pi_d_a2_a3_proc_1
      + pi_d_a3_a2_proc_1 + pi_d_a3_a4_proc_1 - pi_d_a4_a3_proc_1
      + pi_d_a3_a5_proc_0 - pi_d_a5_a3_proc_0 + pi_d_a3_a6_proc_1
      + pi_d_a3_a6_proc_0 - pi_d_a6_a3_proc_1 - pi_d_a6_a3_proc_0
      + pi_d_a3_a7_proc_1 + pi_d_a3_a7_proc_0 - pi_d_a7_a3_proc_1
      - pi_d_a7_a3_proc_0 + pi_d_a3_a8_proc_1 + pi_d_a3_a8_proc_0
      - pi_d_a8_a3_proc_1 - pi_d_a8_a3_proc_0 + pi_d_a3_a9_proc_1
      - pi_d_a9_a3_proc_1 >= 0
 c11: 773 pi_p_a3_a2 + 773 pi_p_a3_a4 + 773 pi_d_a3_a0_proc_0
      + 773 pi_d_a3_a1_proc_0 + 773 pi_d_a3_a5_proc_0 + 773 pi_d_a3_a6_proc_0
      + 773 pi_d_a3_a7_proc_0 + 773 pi_d_a3_a8_proc_0 + pi_y1_a3
      + pi_y2_a3_proc_0 >= 0
 c12: 1157 pi_p_a3_a2 + 1157 pi_p_a3_a4 + 1157 pi_d_a3_a1_proc_1
      + 1157 pi_d_a3_a2_proc_1 + 1157 pi_d_a3_a4_proc_1 + 1157 pi_d_a3_a6_proc_1
      + 1157 pi_d_a3_a7_proc_1 + 1157 pi_d_a3_a8_proc_1 + 1157 pi_d_a3_a9_proc_1
      + pi_y1_a3 + pi_y2_a3_proc_1 >= 0
 c13: pi_p_a4_a1 - pi_p_a6_a4 - pi_p_a9_a4 - pi_p_a3_a4 - pi_d_a1_a4_proc_1
      + pi_d_a4_a1_proc_1 - pi_d_a2_a4_proc_1 + pi_d_a4_a2_proc_1
      - pi_d_a3_a4_proc_1 + pi_d_a4_a3_proc_1 + pi_d_a4_a6_proc_1
      - pi_d_a6_a4_proc_1 + pi_d_a4_a7_proc_1 - pi_d_a7_a4_proc_1
      + pi_d_a4_a8_proc_1 - pi_d_a8_a4_proc_1 + pi_d_a4_a9_proc_1
      - pi_d_a9_a4_proc_1 >= 0
 c14: 628 pi_p_a4_a1 + 628 pi_d_a4_a1_proc_1 + 628 pi_d_a4_a2_proc_1
      + 628 pi_d_a4_a3_proc_1 + 628 pi_d_a4_a6_proc_1 + 628 pi_d_a4_a7_proc_1
      + 628 pi_d_a4_a8_proc_1 + 628 pi_d_a4_a9_proc_1 + pi_y1_a4
      + pi_y2_a4_proc_1 >= 0
 c15: pi_p_a5_a2 - pi_p_a9_a5 - pi_p_a8_a5 - pi_p_a2_a5 - pi_d_a0_a5_proc_0
      + pi_d_a5_a0_proc_0 - pi_d_a1_a5_proc_0 + pi_d_a5_a1_proc_0
      - pi_d_a3_a5_proc_0 + pi_d_a5_a3_proc_0 + pi_d_a5_a6_proc_0
      - pi_d_a6_a5_proc_0 + pi_d_a5_a7_proc_0 - pi_d_a7_a5_proc_0
      + pi_d_a5_a8_proc_0 - pi_d_a8_a5_proc_0 >= 0
 c16: 1054 pi_p_a5_a2 + 1054 pi_d_a5_a0_proc_0 + 1054 pi_d_a5_a1_proc_0
      + 1054 pi_d_a5_a3_proc_0 + 1054 pi_d_a5_a6_proc_0 + 1054 pi_d_a5_a7_proc_0
      + 1054 pi_d_a5_a8_proc_0 + pi_y1_a5 + pi_y2_a5_proc_0 >= 0
 c17: pi_p_a6_a4 - pi_p_a7_a6 - pi_p_a8_a6 - pi_d_a0_a6_proc_0
      + pi_d_a6_a0_proc_0 - pi_d_a1_a6_proc_1 - pi_d_a1_a6_proc_0
      + pi_d_a6_a1_proc_1 + pi_d_a6_a1_proc_0 - pi_d_a2_a6_proc_1
      + pi_d_a6_a2_proc_1 - pi_d_a3_a6_proc_1 - pi_d_a3_a6_proc_0
      + pi_d_a6_a3_proc_1 + pi_d_a6_a3_proc_0 - pi_d_a4_a6_proc_1
      + pi_d_a6_a4_proc_1 - pi_d_a5_a6_proc_0 + pi_d_a6_a5_proc_0
      + pi_d_a6_a7_proc_1 + pi_d_a6_a7_proc_0 - pi_d_a7_a6_proc_1
      - pi_d_a7_a6_proc_0 + pi_d_a6_a8_proc_1 + pi_d_a6_a8_proc_0
      - pi_d_a8_a6_proc_1 - pi_d_a8_a6_proc_0 + pi_d_a6_a9_proc_1
      - pi_d_a9_a6_proc_1 >= 0
 c18: 997 pi_p_a6_a4 + 997 pi_p_a6_a6 + 997 pi_d_a6_a0_proc_0
      + 997 pi_d_a6_a1_proc_0 + 997 pi_d_a6_a3_proc_0 + 997 pi_d_a6_a5_proc_0
      + 997 pi_d_a6_a7_proc_0 + 997 pi_d_a6_a8_proc_0 + pi_y1_a6
      + pi_y2_a6_proc_0 >= 0
 c19: 505 pi_p_a6_a4 + 505 pi_p_a6_a6 + 505 pi_d_a6_a1_proc_1
      + 505 pi_d_a6_a2_proc_1 + 505 pi_d_a6_a3_proc_1 + 505 pi_d_a6_a4_proc_1
      + 505 pi_d_a6_a7_proc_1 + 505 pi_d_a6_a8_proc_1 + 505 pi_d_a6_a9_proc_1
      + pi_y1_a6 + pi_y2_a6_proc_1 >= 0
 c20: pi_p_a7_a6 + pi_p_a7_a8 - pi_p_a9_a7 - pi_d_a0_a7_proc_0
      + pi_d_a7_a0_proc_0 - pi_d_a1_a7_proc_1 - pi_d_a1_a7_proc_0
      + pi_d_a7_a1_proc_1 + pi_d_a7_a1_proc_0 - pi_d_a2_a7_proc_1
      + pi_d_a7_a2_proc_1 - pi_d_a3_a7_proc_1 - pi_d_a3_a7_proc_0
      + pi_d_a7_a3_proc_1 + pi_d_a7_a3_proc_0 - pi_d_a4_a7_proc_1
      + pi_d_a7_a4_proc_1 - pi_d_a5_a7_proc_0 + pi_d_a7_a5_proc_0
      - pi_d_a6_a7_proc_1 - pi_d_a6_a7_proc_0 + pi_d_a7_a6_proc_1
      + pi_d_a7_a6_proc_0 + pi_d_a7_a8_proc_1 + pi_d_a7_a8_proc_0
      - pi_d_a8_a7_proc_1 - pi_d_a8_a7_proc_0 + pi_d_a7_a9_proc_1
      - pi_d_a9_a7_proc_1 >= 0
 c21: 805 pi_p_a7_a6 + 805 pi_p_a7_a8 + 805 pi_d_a7_a0_proc_0
      + 805 pi_d_a7_a1_proc_0 + 805 pi_d_a7_a3_proc_0 + 805 pi_d_a7_a5_proc_0
      + 805 pi_d_a7_a6_proc_0 + 805 pi_d_a7_a8_proc_0 + pi_y1_a7
      + pi_y2_a7_proc_0 >= 0
 c22: 1261 pi_p_a7_a6 + 1261 pi_p_a7_a8 + 1261 pi_d_a7_a1_proc_1
      + 1261 pi_d_a7_a2_proc_1 + 1261 pi_d_a7_a3_proc_1 + 1261 pi_d_a7_a4_proc_1
      + 1261 pi_d_a7_a6_proc_1 + 1261 pi_d_a7_a8_proc_1 + 1261 pi_d_a7_a9_proc_1
      + pi_y1_a7 + pi_y2_a7_proc_1 >= 0
 c23: - pi_p_a7_a8 + pi_p_a8_a9 + pi_p_a8_a5 + pi_p_a8_a6 - pi_d_a0_a8_proc_0
      + pi_d_a8_a0_proc_0 - pi_d_a1_a8_proc_1 - pi_d_a1_a8_proc_0
      + pi_d_a8_a1_proc_1 + pi_d_a8_a1_proc_0 - pi_d_a2_a8_proc_1
      + pi_d_a8_a2_proc_1 - pi_d_a3_a8_proc_1 - pi_d_a3_a8_proc_0
      + pi_d_a8_a3_proc_1 + pi_d_a8_a3_proc_0 - pi_d_a4_a8_proc_1
      + pi_d_a8_a4_proc_1 - pi_d_a5_a8_proc_0 + pi_d_a8_a5_proc_0
      - pi_d_a6_a8_proc_1 - pi_d_a6_a8_proc_0 + pi_d_a8_a6_proc_1
      + pi_d_a8_a6_proc_0 - pi_d_a7_a8_proc_1 - pi_d_a7_a8_proc_0
      + pi_d_a8_a7_proc_1 + pi_d_a8_a7_proc_0 + pi_d_a8_a9_proc_1
      - pi_d_a9_a8_proc_1 >= 0
 c24: 988 pi_p_a8_a9 + 988 pi_p_a8_a5 + 988 pi_p_a8_a6 + 988 pi_d_a8_a0_proc_0
      + 988 pi_d_a8_a1_proc_0 + 988 pi_d_a8_a3_proc_0 + 988 pi_d_a8_a5_proc_0
      + 988 pi_d_a8_a6_proc_0 + 988 pi_d_a8_a7_proc_0 + pi_y1_a8
      + pi_y2_a8_proc_0 >= 0
 c25: 711 pi_p_a8_a9 + 711 pi_p_a8_a5 + 711 pi_p_a8_a6 + 711 pi_d_a8_a1_proc_1
      + 711 pi_d_a8_a2_proc_1 + 711 pi_d_a8_a3_proc_1 + 711 pi_d_a8_a4_proc_1
      + 711 pi_d_a8_a6_proc_1 + 711 pi_d_a8_a7_proc_1 + 711 pi_d_a8_a9_proc_1
      + pi_y1_a8 + pi_y2_a8_proc_1 >= 0
 c26: - pi_p_a8_a9 + pi_p_a9_a7 + pi_p_a9_a5 + pi_p_a9_a4 - pi_d_a1_a9_proc_1
      + pi_d_a9_a1_proc_1 - pi_d_a2_a9_proc_1 + pi_d_a9_a2_proc_1
      - pi_d_a3_a9_proc_1 + pi_d_a9_a3_proc_1 - pi_d_a4_a9_proc_1
      + pi_d_a9_a4_proc_1 - pi_d_a6_a9_proc_1 + pi_d_a9_a6_proc_1
      - pi_d_a7_a9_proc_1 + pi_d_a9_a7_proc_1 - pi_d_a8_a9_proc_1
      + pi_d_a9_a8_proc_1 >= 0
 c27: 1192 pi_p_a9_a7 + 1192 pi_p_a9_a5 + 1192 pi_p_a9_a4
      + 1192 pi_d_a9_a1_proc_1 + 1192 pi_d_a9_a2_proc_1 + 1192 pi_d_a9_a3_proc_1
      + 1192 pi_d_a9_a4_proc_1 + 1192 pi_d_a9_a6_proc_1 + 1192 pi_d_a9_a7_proc_1
      + 1192 pi_d_a9_a8_proc_1 + pi_y1_a9 + pi_y2_a9_proc_1 >= 0

Bounds
       pi_y1_a0 Free
       pi_y1_a1 Free
       pi_y1_a2 Free
       pi_y1_a3 Free
       pi_y1_a4 Free
       pi_y1_a5 Free
       pi_y1_a6 Free
       pi_y1_a7 Free
       pi_y1_a8 Free
       pi_y1_a9 Free
End
