benchmark/results/graph__10-1000-0.10-02_6/graph__10-1000-0.10-02_6_Quinton_Benders_aux.txt
solution for: Quinton Benders_auxiliary_sub
objective: 0.00248944
status: OPTIMAL_SOLUTION(2)
pi_p_a1_a0=0.000
pi_p_a3_a4=0.000
pi_d_a0_a5_proc_0=0.000
pi_d_a9_a1_proc_1=0.000
pi_d_a4_a2_proc_1=0.000
pi_d_a2_a9_proc_1=0.000
pi_d_a5_a3_proc_0=0.000
pi_y1_a0=-0.194
pi_y1_a1=-0.101
pi_y1_a2=-0.129
pi_y1_a3=-0.122
pi_y1_a4=-0.099
pi_y1_a5=-0.167
pi_y1_a9=-0.189
